Traveling Salesman Problem/TSP_generados/Aleatorio1620390909_8.tsp
NAME: Aleatorio1620390909_8.tsp
COMMENT: Randomly generated scenario
TYPE: TSP
DIMENSION: 8
EDGE_WEIGHT_TYPE: ATT
NODE_COORD_SECTION
1 16.85 5.18
2 36.51 22.89
3 1.38 21.18
4 26.91 11.63
5 44.7 0.32
6 24.06 38.98
7 49.73 39.5
8 43.69 31.46
