Traveling Salesman Problem/TSP_generados/Aleatorio1620390909_8.opt.tour
NAME: Aleatorio1620390909_8.opt.tour
COMMENT: Optimal solution for Aleatorio1620390909_8 (155.03919351305646)
TYPE: TOUR
DIMENSION: 8
TOUR_SECTION
1 3 6 7 8 2 5 4
-1
EOF
